2 1
2
0
0 63 1
0 63 1
0 63 1
1 1 1
191.679 27.9831 208.284
27.0949 41.6518 30.593
-0.674561 -0.442696 0.590751
0 0 0
0
0
0
0
0
1
1
1 1
0
2
6 0
2 Stress11
2
0
0 0
0
0 0 0
0 0 0
0
0
0
0 -1
0
0 Vector
0
0
0
0
0 0
0
0
0
0 0 0
0
0
2
2
2
2
2
0
0
0
0
0
0
0
0
0
0
0
0
0
0
0
0
0
0
0
0
0
0
2
0
2
0
180 0.05
